*SENSE:Minimize
NAME          MODEL
ROWS
 N  OBJ
 E  C0000000
 L  C0000001
 G  C0000002
 E  C0000003
 L  C0000004
 G  C0000005
 E  C0000006
 L  C0000007
 G  C0000008
 E  C0000009
 L  C0000010
 G  C0000011
 E  C0000012
 L  C0000013
 G  C0000014
 E  C0000015
 L  C0000016
 G  C0000017
 E  C0000018
 L  C0000019
 G  C0000020
 E  C0000021
 L  C0000022
 G  C0000023
 E  C0000024
 L  C0000025
 G  C0000026
 E  C0000027
 L  C0000028
 G  C0000029
 E  C0000030
 L  C0000031
 G  C0000032
 E  C0000033
 L  C0000034
 G  C0000035
 E  C0000036
 L  C0000037
 G  C0000038
 E  C0000039
 L  C0000040
 G  C0000041
 E  C0000042
 L  C0000043
 G  C0000044
 E  C0000045
 L  C0000046
 G  C0000047
 E  C0000048
 L  C0000049
 G  C0000050
 E  C0000051
 L  C0000052
 G  C0000053
 E  C0000054
 L  C0000055
 G  C0000056
 E  C0000057
 L  C0000058
 G  C0000059
 E  C0000060
 L  C0000061
 G  C0000062
 E  C0000063
 L  C0000064
 G  C0000065
 E  C0000066
 L  C0000067
 G  C0000068
 E  C0000069
 L  C0000070
 G  C0000071
 E  C0000072
 E  C0000073
 E  C0000074
 E  C0000075
 E  C0000076
 E  C0000077
 E  C0000078
 E  C0000079
 E  C0000080
 E  C0000081
 E  C0000082
 E  C0000083
 E  C0000084
 E  C0000085
 E  C0000086
 E  C0000087
 E  C0000088
 E  C0000089
 E  C0000090
 E  C0000091
 E  C0000092
 E  C0000093
 E  C0000094
 E  C0000095
 L  C0000096
 G  C0000097
 G  C0000098
 L  C0000099
 G  C0000100
 L  C0000101
 G  C0000102
 L  C0000103
 G  C0000104
 L  C0000105
 G  C0000106
 L  C0000107
 G  C0000108
 L  C0000109
 G  C0000110
 L  C0000111
 G  C0000112
 L  C0000113
 G  C0000114
 L  C0000115
 G  C0000116
 L  C0000117
 G  C0000118
 L  C0000119
 G  C0000120
 L  C0000121
 G  C0000122
 L  C0000123
 G  C0000124
 L  C0000125
 G  C0000126
 L  C0000127
 G  C0000128
 L  C0000129
 G  C0000130
 L  C0000131
 G  C0000132
 L  C0000133
 G  C0000134
 L  C0000135
 G  C0000136
 L  C0000137
 G  C0000138
 L  C0000139
 G  C0000140
 L  C0000141
 G  C0000142
 L  C0000143
 G  C0000144
 L  C0000145
 L  C0000146
 G  C0000147
 L  C0000148
 G  C0000149
 L  C0000150
 G  C0000151
 L  C0000152
 G  C0000153
 L  C0000154
 G  C0000155
 L  C0000156
 G  C0000157
 L  C0000158
 G  C0000159
 L  C0000160
 G  C0000161
 L  C0000162
 G  C0000163
 L  C0000164
 G  C0000165
 L  C0000166
 G  C0000167
 L  C0000168
 G  C0000169
 L  C0000170
 G  C0000171
 L  C0000172
 G  C0000173
 L  C0000174
 G  C0000175
 L  C0000176
 G  C0000177
 L  C0000178
 G  C0000179
 L  C0000180
 G  C0000181
 L  C0000182
 G  C0000183
 L  C0000184
 G  C0000185
 L  C0000186
 G  C0000187
 L  C0000188
 G  C0000189
 L  C0000190
 G  C0000191
 L  C0000192
 G  C0000193
 L  C0000194
 G  C0000195
 L  C0000196
 G  C0000197
 L  C0000198
 G  C0000199
 L  C0000200
 G  C0000201
 L  C0000202
 G  C0000203
 L  C0000204
 G  C0000205
 L  C0000206
 G  C0000207
 G  C0000208
 L  C0000209
 G  C0000210
 L  C0000211
 G  C0000212
 L  C0000213
 G  C0000214
 L  C0000215
 G  C0000216
 L  C0000217
 G  C0000218
 L  C0000219
 G  C0000220
 L  C0000221
 G  C0000222
 L  C0000223
 G  C0000224
 L  C0000225
 G  C0000226
 L  C0000227
 G  C0000228
 L  C0000229
 G  C0000230
 L  C0000231
 G  C0000232
 L  C0000233
 G  C0000234
 L  C0000235
 G  C0000236
 L  C0000237
 G  C0000238
 L  C0000239
 G  C0000240
 L  C0000241
 L  C0000242
 L  C0000243
 L  C0000244
 L  C0000245
 L  C0000246
 L  C0000247
 L  C0000248
 L  C0000249
 E  C0000250
 E  C0000251
 E  C0000252
 E  C0000253
COLUMNS
    X0000000  C0000000  -8.000000000000e-01
    X0000000  C0000001   1.000000000000e+00
    X0000000  C0000098   1.000000000000e+00
    X0000000  C0000194   1.000000000000e+00
    X0000000  C0000195   1.000000000000e+00
    X0000001  C0000027  -8.000000000000e-01
    X0000001  C0000028   1.000000000000e+00
    X0000001  C0000081   1.000000000000e+00
    X0000001  C0000116   1.000000000000e+00
    X0000001  C0000246   1.000000000000e+00
    X0000001  OBJ        5.882352941176e-02
    X0000002  C0000030  -8.000000000000e-01
    X0000002  C0000031   1.000000000000e+00
    X0000002  C0000082   1.000000000000e+00
    X0000002  C0000118   1.000000000000e+00
    X0000002  C0000247   1.000000000000e+00
    X0000002  OBJ        5.882352941176e-02
    X0000003  C0000033  -8.000000000000e-01
    X0000003  C0000034   1.000000000000e+00
    X0000003  C0000083   1.000000000000e+00
    X0000003  C0000120   1.000000000000e+00
    X0000003  C0000248   1.000000000000e+00
    X0000003  OBJ        5.882352941176e-02
    X0000004  C0000036  -8.000000000000e-01
    X0000004  C0000037   1.000000000000e+00
    X0000004  C0000084   1.000000000000e+00
    X0000004  C0000122   1.000000000000e+00
    X0000004  C0000249   1.000000000000e+00
    X0000004  OBJ        5.882352941176e-02
    X0000005  C0000039  -8.000000000000e-01
    X0000005  C0000040   1.000000000000e+00
    X0000005  C0000085   1.000000000000e+00
    X0000005  C0000124   1.000000000000e+00
    X0000005  OBJ        5.882352941176e-02
    X0000006  C0000042  -8.000000000000e-01
    X0000006  C0000043   1.000000000000e+00
    X0000006  C0000086   1.000000000000e+00
    X0000006  C0000126   1.000000000000e+00
    X0000006  OBJ        5.882352941176e-02
    X0000007  C0000045  -8.000000000000e-01
    X0000007  C0000046   1.000000000000e+00
    X0000007  C0000087   1.000000000000e+00
    X0000007  C0000128   1.000000000000e+00
    X0000007  OBJ        5.882352941176e-02
    X0000008  C0000048  -8.000000000000e-01
    X0000008  C0000049   1.000000000000e+00
    X0000008  C0000130   1.000000000000e+00
    X0000008  C0000202   1.000000000000e+00
    X0000008  C0000203   1.000000000000e+00
    X0000009  C0000051  -8.000000000000e-01
    X0000009  C0000052   1.000000000000e+00
    X0000009  C0000132   1.000000000000e+00
    X0000009  C0000204   1.000000000000e+00
    X0000009  C0000205   1.000000000000e+00
    X0000010  C0000054  -8.000000000000e-01
    X0000010  C0000055   1.000000000000e+00
    X0000010  C0000134   1.000000000000e+00
    X0000010  C0000206   1.000000000000e+00
    X0000010  C0000207   1.000000000000e+00
    X0000011  C0000003  -8.000000000000e-01
    X0000011  C0000004   1.000000000000e+00
    X0000011  C0000100   1.000000000000e+00
    X0000011  C0000196   1.000000000000e+00
    X0000011  C0000197   1.000000000000e+00
    X0000012  C0000057  -8.000000000000e-01
    X0000012  C0000058   1.000000000000e+00
    X0000012  C0000091   1.000000000000e+00
    X0000012  C0000136   1.000000000000e+00
    X0000012  OBJ        5.882352941176e-02
    X0000013  C0000060  -8.000000000000e-01
    X0000013  C0000061   1.000000000000e+00
    X0000013  C0000092   1.000000000000e+00
    X0000013  C0000138   1.000000000000e+00
    X0000013  OBJ        5.882352941176e-02
    X0000014  C0000063  -8.000000000000e-01
    X0000014  C0000064   1.000000000000e+00
    X0000014  C0000093   1.000000000000e+00
    X0000014  C0000140   1.000000000000e+00
    X0000014  OBJ        5.882352941176e-02
    X0000015  C0000066  -8.000000000000e-01
    X0000015  C0000067   1.000000000000e+00
    X0000015  C0000094   1.000000000000e+00
    X0000015  C0000142   1.000000000000e+00
    X0000015  OBJ        5.882352941176e-02
    X0000016  C0000069  -8.000000000000e-01
    X0000016  C0000070   1.000000000000e+00
    X0000016  C0000095   1.000000000000e+00
    X0000016  C0000144   1.000000000000e+00
    X0000016  OBJ        5.882352941176e-02
    X0000017  C0000006  -8.000000000000e-01
    X0000017  C0000007   1.000000000000e+00
    X0000017  C0000102   1.000000000000e+00
    X0000017  C0000198   1.000000000000e+00
    X0000017  C0000199   1.000000000000e+00
    X0000018  C0000009  -8.000000000000e-01
    X0000018  C0000010   1.000000000000e+00
    X0000018  C0000104   1.000000000000e+00
    X0000018  C0000200   1.000000000000e+00
    X0000018  C0000201   1.000000000000e+00
    X0000019  C0000012  -8.000000000000e-01
    X0000019  C0000013   1.000000000000e+00
    X0000019  C0000076   1.000000000000e+00
    X0000019  C0000106   1.000000000000e+00
    X0000019  OBJ        5.882352941176e-02
    X0000020  C0000015  -8.000000000000e-01
    X0000020  C0000016   1.000000000000e+00
    X0000020  C0000077   1.000000000000e+00
    X0000020  C0000108   1.000000000000e+00
    X0000020  C0000242   1.000000000000e+00
    X0000020  OBJ        5.882352941176e-02
    X0000021  C0000018  -8.000000000000e-01
    X0000021  C0000019   1.000000000000e+00
    X0000021  C0000078   1.000000000000e+00
    X0000021  C0000110   1.000000000000e+00
    X0000021  C0000243   1.000000000000e+00
    X0000021  OBJ        5.882352941176e-02
    X0000022  C0000021  -8.000000000000e-01
    X0000022  C0000022   1.000000000000e+00
    X0000022  C0000079   1.000000000000e+00
    X0000022  C0000112   1.000000000000e+00
    X0000022  C0000244   1.000000000000e+00
    X0000022  OBJ        5.882352941176e-02
    X0000023  C0000024  -8.000000000000e-01
    X0000023  C0000025   1.000000000000e+00
    X0000023  C0000080   1.000000000000e+00
    X0000023  C0000114   1.000000000000e+00
    X0000023  C0000245   1.000000000000e+00
    X0000023  OBJ        5.882352941176e-02
    X0000024  C0000000  -1.250000000000e+00
    X0000024  C0000002   1.000000000000e+00
    X0000024  C0000072   1.000000000000e+00
    X0000024  C0000099   1.000000000000e+00
    X0000025  C0000027  -1.250000000000e+00
    X0000025  C0000029   1.000000000000e+00
    X0000025  C0000117   1.000000000000e+00
    X0000025  C0000218   1.000000000000e+00
    X0000025  C0000219   1.000000000000e+00
    X0000025  C0000246   1.000000000000e+00
    X0000025  OBJ        1.058823529412e+00
    X0000026  C0000030  -1.250000000000e+00
    X0000026  C0000032   1.000000000000e+00
    X0000026  C0000119   1.000000000000e+00
    X0000026  C0000220   1.000000000000e+00
    X0000026  C0000221   1.000000000000e+00
    X0000026  C0000247   1.000000000000e+00
    X0000026  OBJ        1.058823529412e+00
    X0000027  C0000033  -1.250000000000e+00
    X0000027  C0000035   1.000000000000e+00
    X0000027  C0000121   1.000000000000e+00
    X0000027  C0000222   1.000000000000e+00
    X0000027  C0000223   1.000000000000e+00
    X0000027  C0000248   1.000000000000e+00
    X0000027  OBJ        1.058823529412e+00
    X0000028  C0000036  -1.250000000000e+00
    X0000028  C0000038   1.000000000000e+00
    X0000028  C0000123   1.000000000000e+00
    X0000028  C0000224   1.000000000000e+00
    X0000028  C0000225   1.000000000000e+00
    X0000028  C0000249   1.000000000000e+00
    X0000028  OBJ        1.058823529412e+00
    X0000029  C0000039  -1.250000000000e+00
    X0000029  C0000041   1.000000000000e+00
    X0000029  C0000125   1.000000000000e+00
    X0000029  C0000226   1.000000000000e+00
    X0000029  C0000227   1.000000000000e+00
    X0000029  OBJ        5.882352941176e-02
    X0000030  C0000042  -1.250000000000e+00
    X0000030  C0000044   1.000000000000e+00
    X0000030  C0000127   1.000000000000e+00
    X0000030  C0000228   1.000000000000e+00
    X0000030  C0000229   1.000000000000e+00
    X0000030  C0000250   1.000000000000e+00
    X0000030  OBJ        5.882352941176e-02
    X0000031  C0000045  -1.250000000000e+00
    X0000031  C0000047   1.000000000000e+00
    X0000031  C0000129   1.000000000000e+00
    X0000031  C0000230   1.000000000000e+00
    X0000031  C0000231   1.000000000000e+00
    X0000031  OBJ        5.882352941176e-02
    X0000032  C0000048  -1.250000000000e+00
    X0000032  C0000050   1.000000000000e+00
    X0000032  C0000088   1.000000000000e+00
    X0000032  C0000131   1.000000000000e+00
    X0000033  C0000051  -1.250000000000e+00
    X0000033  C0000053   1.000000000000e+00
    X0000033  C0000089   1.000000000000e+00
    X0000033  C0000133   1.000000000000e+00
    X0000034  C0000054  -1.250000000000e+00
    X0000034  C0000056   1.000000000000e+00
    X0000034  C0000090   1.000000000000e+00
    X0000034  C0000135   1.000000000000e+00
    X0000035  C0000003  -1.250000000000e+00
    X0000035  C0000005   1.000000000000e+00
    X0000035  C0000073   1.000000000000e+00
    X0000035  C0000101   1.000000000000e+00
    X0000036  C0000057  -1.250000000000e+00
    X0000036  C0000059   1.000000000000e+00
    X0000036  C0000137   1.000000000000e+00
    X0000036  C0000232   1.000000000000e+00
    X0000036  C0000233   1.000000000000e+00
    X0000036  C0000251   1.000000000000e+00
    X0000036  OBJ        5.882352941176e-02
    X0000037  C0000060  -1.250000000000e+00
    X0000037  C0000062   1.000000000000e+00
    X0000037  C0000139   1.000000000000e+00
    X0000037  C0000234   1.000000000000e+00
    X0000037  C0000235   1.000000000000e+00
    X0000037  OBJ        5.882352941176e-02
    X0000038  C0000063  -1.250000000000e+00
    X0000038  C0000065   1.000000000000e+00
    X0000038  C0000141   1.000000000000e+00
    X0000038  C0000236   1.000000000000e+00
    X0000038  C0000237   1.000000000000e+00
    X0000038  OBJ        5.882352941176e-02
    X0000039  C0000066  -1.250000000000e+00
    X0000039  C0000068   1.000000000000e+00
    X0000039  C0000143   1.000000000000e+00
    X0000039  C0000238   1.000000000000e+00
    X0000039  C0000239   1.000000000000e+00
    X0000039  C0000252   1.000000000000e+00
    X0000039  OBJ        5.882352941176e-02
    X0000040  C0000069  -1.250000000000e+00
    X0000040  C0000071   1.000000000000e+00
    X0000040  C0000145   1.000000000000e+00
    X0000040  C0000240   1.000000000000e+00
    X0000040  C0000241   1.000000000000e+00
    X0000040  C0000253   1.000000000000e+00
    X0000040  OBJ        5.882352941176e-02
    X0000041  C0000006  -1.250000000000e+00
    X0000041  C0000008   1.000000000000e+00
    X0000041  C0000074   1.000000000000e+00
    X0000041  C0000103   1.000000000000e+00
    X0000042  C0000009  -1.250000000000e+00
    X0000042  C0000011   1.000000000000e+00
    X0000042  C0000075   1.000000000000e+00
    X0000042  C0000105   1.000000000000e+00
    X0000043  C0000012  -1.250000000000e+00
    X0000043  C0000014   1.000000000000e+00
    X0000043  C0000107   1.000000000000e+00
    X0000043  C0000208   1.000000000000e+00
    X0000043  C0000209   1.000000000000e+00
    X0000043  OBJ        5.882352941176e-02
    X0000044  C0000015  -1.250000000000e+00
    X0000044  C0000017   1.000000000000e+00
    X0000044  C0000109   1.000000000000e+00
    X0000044  C0000210   1.000000000000e+00
    X0000044  C0000211   1.000000000000e+00
    X0000044  C0000242   1.000000000000e+00
    X0000044  OBJ        5.882352941176e-02
    X0000045  C0000018  -1.250000000000e+00
    X0000045  C0000020   1.000000000000e+00
    X0000045  C0000111   1.000000000000e+00
    X0000045  C0000212   1.000000000000e+00
    X0000045  C0000213   1.000000000000e+00
    X0000045  C0000243   1.000000000000e+00
    X0000045  OBJ        5.882352941176e-02
    X0000046  C0000021  -1.250000000000e+00
    X0000046  C0000023   1.000000000000e+00
    X0000046  C0000113   1.000000000000e+00
    X0000046  C0000214   1.000000000000e+00
    X0000046  C0000215   1.000000000000e+00
    X0000046  C0000244   1.000000000000e+00
    X0000046  OBJ        5.882352941176e-02
    X0000047  C0000024  -1.250000000000e+00
    X0000047  C0000026   1.000000000000e+00
    X0000047  C0000115   1.000000000000e+00
    X0000047  C0000216   1.000000000000e+00
    X0000047  C0000217   1.000000000000e+00
    X0000047  C0000245   1.000000000000e+00
    X0000047  OBJ        1.058823529412e+00
    X0000048  C0000000   1.000000000000e+00
    X0000048  C0000003  -1.000000000000e+00
    X0000048  C0000004   1.000000000000e+00
    X0000048  C0000005   1.000000000000e+00
    X0000048  C0000146   1.000000000000e+00
    X0000048  C0000147   1.000000000000e+00
    X0000049  C0000027   1.000000000000e+00
    X0000049  C0000030  -1.000000000000e+00
    X0000049  C0000031   1.000000000000e+00
    X0000049  C0000032   1.000000000000e+00
    X0000049  C0000164   1.000000000000e+00
    X0000049  C0000165   1.000000000000e+00
    X0000050  C0000030   1.000000000000e+00
    X0000050  C0000033  -1.000000000000e+00
    X0000050  C0000034   1.000000000000e+00
    X0000050  C0000035   1.000000000000e+00
    X0000050  C0000166   1.000000000000e+00
    X0000050  C0000167   1.000000000000e+00
    X0000051  C0000033   1.000000000000e+00
    X0000051  C0000036  -1.000000000000e+00
    X0000051  C0000037   1.000000000000e+00
    X0000051  C0000038   1.000000000000e+00
    X0000051  C0000168   1.000000000000e+00
    X0000051  C0000169   1.000000000000e+00
    X0000052  C0000036   1.000000000000e+00
    X0000052  C0000039  -1.000000000000e+00
    X0000052  C0000040   1.000000000000e+00
    X0000052  C0000041   1.000000000000e+00
    X0000052  C0000170   1.000000000000e+00
    X0000052  C0000171   1.000000000000e+00
    X0000053  C0000039   1.000000000000e+00
    X0000053  C0000042  -1.000000000000e+00
    X0000053  C0000043   1.000000000000e+00
    X0000053  C0000044   1.000000000000e+00
    X0000053  C0000172   1.000000000000e+00
    X0000053  C0000173   1.000000000000e+00
    X0000054  C0000042   1.000000000000e+00
    X0000054  C0000045  -1.000000000000e+00
    X0000054  C0000046   1.000000000000e+00
    X0000054  C0000047   1.000000000000e+00
    X0000054  C0000174   1.000000000000e+00
    X0000054  C0000175   1.000000000000e+00
    X0000055  C0000045   1.000000000000e+00
    X0000055  C0000048  -1.000000000000e+00
    X0000055  C0000049   1.000000000000e+00
    X0000055  C0000050   1.000000000000e+00
    X0000055  C0000176   1.000000000000e+00
    X0000055  C0000177   1.000000000000e+00
    X0000056  C0000048   1.000000000000e+00
    X0000056  C0000051  -1.000000000000e+00
    X0000056  C0000052   1.000000000000e+00
    X0000056  C0000053   1.000000000000e+00
    X0000056  C0000178   1.000000000000e+00
    X0000056  C0000179   1.000000000000e+00
    X0000057  C0000051   1.000000000000e+00
    X0000057  C0000054  -1.000000000000e+00
    X0000057  C0000055   1.000000000000e+00
    X0000057  C0000056   1.000000000000e+00
    X0000057  C0000180   1.000000000000e+00
    X0000057  C0000181   1.000000000000e+00
    X0000058  C0000054   1.000000000000e+00
    X0000058  C0000057  -1.000000000000e+00
    X0000058  C0000058   1.000000000000e+00
    X0000058  C0000059   1.000000000000e+00
    X0000058  C0000182   1.000000000000e+00
    X0000058  C0000183   1.000000000000e+00
    X0000059  C0000003   1.000000000000e+00
    X0000059  C0000006  -1.000000000000e+00
    X0000059  C0000007   1.000000000000e+00
    X0000059  C0000008   1.000000000000e+00
    X0000059  C0000148   1.000000000000e+00
    X0000059  C0000149   1.000000000000e+00
    X0000060  C0000057   1.000000000000e+00
    X0000060  C0000060  -1.000000000000e+00
    X0000060  C0000061   1.000000000000e+00
    X0000060  C0000062   1.000000000000e+00
    X0000060  C0000184   1.000000000000e+00
    X0000060  C0000185   1.000000000000e+00
    X0000061  C0000060   1.000000000000e+00
    X0000061  C0000063  -1.000000000000e+00
    X0000061  C0000064   1.000000000000e+00
    X0000061  C0000065   1.000000000000e+00
    X0000061  C0000186   1.000000000000e+00
    X0000061  C0000187   1.000000000000e+00
    X0000062  C0000063   1.000000000000e+00
    X0000062  C0000066  -1.000000000000e+00
    X0000062  C0000067   1.000000000000e+00
    X0000062  C0000068   1.000000000000e+00
    X0000062  C0000188   1.000000000000e+00
    X0000062  C0000189   1.000000000000e+00
    X0000063  C0000066   1.000000000000e+00
    X0000063  C0000069  -1.000000000000e+00
    X0000063  C0000070   1.000000000000e+00
    X0000063  C0000071   1.000000000000e+00
    X0000063  C0000190   1.000000000000e+00
    X0000063  C0000191   1.000000000000e+00
    X0000064  C0000069   1.000000000000e+00
    X0000064  C0000096   1.000000000000e+00
    X0000064  C0000097   1.000000000000e+00
    X0000064  C0000192   1.000000000000e+00
    X0000064  C0000193   1.000000000000e+00
    X0000065  C0000006   1.000000000000e+00
    X0000065  C0000009  -1.000000000000e+00
    X0000065  C0000010   1.000000000000e+00
    X0000065  C0000011   1.000000000000e+00
    X0000065  C0000150   1.000000000000e+00
    X0000065  C0000151   1.000000000000e+00
    X0000066  C0000009   1.000000000000e+00
    X0000066  C0000012  -1.000000000000e+00
    X0000066  C0000013   1.000000000000e+00
    X0000066  C0000014   1.000000000000e+00
    X0000066  C0000152   1.000000000000e+00
    X0000066  C0000153   1.000000000000e+00
    X0000067  C0000012   1.000000000000e+00
    X0000067  C0000015  -1.000000000000e+00
    X0000067  C0000016   1.000000000000e+00
    X0000067  C0000017   1.000000000000e+00
    X0000067  C0000154   1.000000000000e+00
    X0000067  C0000155   1.000000000000e+00
    X0000068  C0000015   1.000000000000e+00
    X0000068  C0000018  -1.000000000000e+00
    X0000068  C0000019   1.000000000000e+00
    X0000068  C0000020   1.000000000000e+00
    X0000068  C0000156   1.000000000000e+00
    X0000068  C0000157   1.000000000000e+00
    X0000069  C0000018   1.000000000000e+00
    X0000069  C0000021  -1.000000000000e+00
    X0000069  C0000022   1.000000000000e+00
    X0000069  C0000023   1.000000000000e+00
    X0000069  C0000158   1.000000000000e+00
    X0000069  C0000159   1.000000000000e+00
    X0000070  C0000021   1.000000000000e+00
    X0000070  C0000024  -1.000000000000e+00
    X0000070  C0000025   1.000000000000e+00
    X0000070  C0000026   1.000000000000e+00
    X0000070  C0000160   1.000000000000e+00
    X0000070  C0000161   1.000000000000e+00
    X0000071  C0000024   1.000000000000e+00
    X0000071  C0000027  -1.000000000000e+00
    X0000071  C0000028   1.000000000000e+00
    X0000071  C0000029   1.000000000000e+00
    X0000071  C0000162   1.000000000000e+00
    X0000071  C0000163   1.000000000000e+00
RHS
    RHS       C0000000   6.780000000000e-01
    RHS       C0000001   5.932500000000e-01
    RHS       C0000002  -4.972000000000e-01
    RHS       C0000003   0.000000000000e+00
    RHS       C0000004   1.271250000000e+00
    RHS       C0000005   1.808000000000e-01
    RHS       C0000006   0.000000000000e+00
    RHS       C0000007   1.271250000000e+00
    RHS       C0000008   1.808000000000e-01
    RHS       C0000009   0.000000000000e+00
    RHS       C0000010   1.271250000000e+00
    RHS       C0000011   1.808000000000e-01
    RHS       C0000012   0.000000000000e+00
    RHS       C0000013   1.271250000000e+00
    RHS       C0000014   1.808000000000e-01
    RHS       C0000015   0.000000000000e+00
    RHS       C0000016   1.271250000000e+00
    RHS       C0000017   1.808000000000e-01
    RHS       C0000018   0.000000000000e+00
    RHS       C0000019   1.271250000000e+00
    RHS       C0000020   1.808000000000e-01
    RHS       C0000021   0.000000000000e+00
    RHS       C0000022   1.271250000000e+00
    RHS       C0000023   1.808000000000e-01
    RHS       C0000024   0.000000000000e+00
    RHS       C0000025   1.271250000000e+00
    RHS       C0000026   1.808000000000e-01
    RHS       C0000027   0.000000000000e+00
    RHS       C0000028   1.271250000000e+00
    RHS       C0000029   1.808000000000e-01
    RHS       C0000030   0.000000000000e+00
    RHS       C0000031   1.271250000000e+00
    RHS       C0000032   1.808000000000e-01
    RHS       C0000033   0.000000000000e+00
    RHS       C0000034   1.271250000000e+00
    RHS       C0000035   1.808000000000e-01
    RHS       C0000036   0.000000000000e+00
    RHS       C0000037   1.271250000000e+00
    RHS       C0000038   1.808000000000e-01
    RHS       C0000039   0.000000000000e+00
    RHS       C0000040   1.271250000000e+00
    RHS       C0000041   1.808000000000e-01
    RHS       C0000042   0.000000000000e+00
    RHS       C0000043   1.271250000000e+00
    RHS       C0000044   1.808000000000e-01
    RHS       C0000045   0.000000000000e+00
    RHS       C0000046   1.271250000000e+00
    RHS       C0000047   1.808000000000e-01
    RHS       C0000048   0.000000000000e+00
    RHS       C0000049   1.271250000000e+00
    RHS       C0000050   1.808000000000e-01
    RHS       C0000051   0.000000000000e+00
    RHS       C0000052   1.271250000000e+00
    RHS       C0000053   1.808000000000e-01
    RHS       C0000054   0.000000000000e+00
    RHS       C0000055   1.271250000000e+00
    RHS       C0000056   1.808000000000e-01
    RHS       C0000057   0.000000000000e+00
    RHS       C0000058   1.271250000000e+00
    RHS       C0000059   1.808000000000e-01
    RHS       C0000060   0.000000000000e+00
    RHS       C0000061   1.271250000000e+00
    RHS       C0000062   1.808000000000e-01
    RHS       C0000063   0.000000000000e+00
    RHS       C0000064   1.271250000000e+00
    RHS       C0000065   1.808000000000e-01
    RHS       C0000066   0.000000000000e+00
    RHS       C0000067   1.271250000000e+00
    RHS       C0000068   1.808000000000e-01
    RHS       C0000069   0.000000000000e+00
    RHS       C0000070   1.271250000000e+00
    RHS       C0000071   1.808000000000e-01
    RHS       C0000072   0.000000000000e+00
    RHS       C0000073   0.000000000000e+00
    RHS       C0000074   0.000000000000e+00
    RHS       C0000075   0.000000000000e+00
    RHS       C0000076   0.000000000000e+00
    RHS       C0000077   0.000000000000e+00
    RHS       C0000078   0.000000000000e+00
    RHS       C0000079   0.000000000000e+00
    RHS       C0000080   0.000000000000e+00
    RHS       C0000081   0.000000000000e+00
    RHS       C0000082   0.000000000000e+00
    RHS       C0000083   0.000000000000e+00
    RHS       C0000084   0.000000000000e+00
    RHS       C0000085   0.000000000000e+00
    RHS       C0000086   0.000000000000e+00
    RHS       C0000087   0.000000000000e+00
    RHS       C0000088   0.000000000000e+00
    RHS       C0000089   0.000000000000e+00
    RHS       C0000090   0.000000000000e+00
    RHS       C0000091   0.000000000000e+00
    RHS       C0000092   0.000000000000e+00
    RHS       C0000093   0.000000000000e+00
    RHS       C0000094   0.000000000000e+00
    RHS       C0000095   0.000000000000e+00
    RHS       C0000096   6.780000000000e-01
    RHS       C0000097   4.520000000000e-01
    RHS       C0000098   0.000000000000e+00
    RHS       C0000099   0.000000000000e+00
    RHS       C0000100   0.000000000000e+00
    RHS       C0000101   0.000000000000e+00
    RHS       C0000102   0.000000000000e+00
    RHS       C0000103   0.000000000000e+00
    RHS       C0000104   0.000000000000e+00
    RHS       C0000105   0.000000000000e+00
    RHS       C0000106   0.000000000000e+00
    RHS       C0000107   0.000000000000e+00
    RHS       C0000108   0.000000000000e+00
    RHS       C0000109   0.000000000000e+00
    RHS       C0000110   0.000000000000e+00
    RHS       C0000111   0.000000000000e+00
    RHS       C0000112   0.000000000000e+00
    RHS       C0000113   0.000000000000e+00
    RHS       C0000114   0.000000000000e+00
    RHS       C0000115   0.000000000000e+00
    RHS       C0000116   0.000000000000e+00
    RHS       C0000117   0.000000000000e+00
    RHS       C0000118   0.000000000000e+00
    RHS       C0000119   0.000000000000e+00
    RHS       C0000120   0.000000000000e+00
    RHS       C0000121   0.000000000000e+00
    RHS       C0000122   0.000000000000e+00
    RHS       C0000123   0.000000000000e+00
    RHS       C0000124   0.000000000000e+00
    RHS       C0000125   0.000000000000e+00
    RHS       C0000126   0.000000000000e+00
    RHS       C0000127   0.000000000000e+00
    RHS       C0000128   0.000000000000e+00
    RHS       C0000129   0.000000000000e+00
    RHS       C0000130   0.000000000000e+00
    RHS       C0000131   0.000000000000e+00
    RHS       C0000132   0.000000000000e+00
    RHS       C0000133   0.000000000000e+00
    RHS       C0000134   0.000000000000e+00
    RHS       C0000135   0.000000000000e+00
    RHS       C0000136   0.000000000000e+00
    RHS       C0000137   0.000000000000e+00
    RHS       C0000138   0.000000000000e+00
    RHS       C0000139   0.000000000000e+00
    RHS       C0000140   0.000000000000e+00
    RHS       C0000141   0.000000000000e+00
    RHS       C0000142   0.000000000000e+00
    RHS       C0000143   0.000000000000e+00
    RHS       C0000144   0.000000000000e+00
    RHS       C0000145   0.000000000000e+00
    RHS       C0000146   1.017000000000e+00
    RHS       C0000147   2.260000000000e-01
    RHS       C0000148   1.017000000000e+00
    RHS       C0000149   2.260000000000e-01
    RHS       C0000150   1.017000000000e+00
    RHS       C0000151   2.260000000000e-01
    RHS       C0000152   1.017000000000e+00
    RHS       C0000153   2.260000000000e-01
    RHS       C0000154   1.017000000000e+00
    RHS       C0000155   2.260000000000e-01
    RHS       C0000156   1.017000000000e+00
    RHS       C0000157   2.260000000000e-01
    RHS       C0000158   1.017000000000e+00
    RHS       C0000159   2.260000000000e-01
    RHS       C0000160   1.017000000000e+00
    RHS       C0000161   2.260000000000e-01
    RHS       C0000162   1.017000000000e+00
    RHS       C0000163   2.260000000000e-01
    RHS       C0000164   1.017000000000e+00
    RHS       C0000165   2.260000000000e-01
    RHS       C0000166   1.017000000000e+00
    RHS       C0000167   2.260000000000e-01
    RHS       C0000168   1.017000000000e+00
    RHS       C0000169   2.260000000000e-01
    RHS       C0000170   1.017000000000e+00
    RHS       C0000171   2.260000000000e-01
    RHS       C0000172   1.017000000000e+00
    RHS       C0000173   2.260000000000e-01
    RHS       C0000174   1.017000000000e+00
    RHS       C0000175   2.260000000000e-01
    RHS       C0000176   1.017000000000e+00
    RHS       C0000177   2.260000000000e-01
    RHS       C0000178   1.017000000000e+00
    RHS       C0000179   2.260000000000e-01
    RHS       C0000180   1.017000000000e+00
    RHS       C0000181   2.260000000000e-01
    RHS       C0000182   1.017000000000e+00
    RHS       C0000183   2.260000000000e-01
    RHS       C0000184   1.017000000000e+00
    RHS       C0000185   2.260000000000e-01
    RHS       C0000186   1.017000000000e+00
    RHS       C0000187   2.260000000000e-01
    RHS       C0000188   1.017000000000e+00
    RHS       C0000189   2.260000000000e-01
    RHS       C0000190   1.017000000000e+00
    RHS       C0000191   2.260000000000e-01
    RHS       C0000192   1.017000000000e+00
    RHS       C0000193   2.260000000000e-01
    RHS       C0000194   1.418032682234e+02
    RHS       C0000195   0.000000000000e+00
    RHS       C0000196   1.186603949126e+02
    RHS       C0000197   0.000000000000e+00
    RHS       C0000198   9.534591539431e+01
    RHS       C0000199   0.000000000000e+00
    RHS       C0000200   3.080400711075e+01
    RHS       C0000201   0.000000000000e+00
    RHS       C0000202   2.253086463553e+00
    RHS       C0000203   0.000000000000e+00
    RHS       C0000204   9.918977464042e-01
    RHS       C0000205   0.000000000000e+00
    RHS       C0000206   7.218490740142e+00
    RHS       C0000207   0.000000000000e+00
    RHS       C0000208  -1.714775393779e+01
    RHS       C0000209   0.000000000000e+00
    RHS       C0000210  -3.520861835986e+01
    RHS       C0000211   0.000000000000e+00
    RHS       C0000212  -2.521228150494e+01
    RHS       C0000213   0.000000000000e+00
    RHS       C0000214  -3.076129795788e+01
    RHS       C0000215   0.000000000000e+00
    RHS       C0000216  -4.233888874991e+01
    RHS       C0000217   0.000000000000e+00
    RHS       C0000218  -4.235486374753e+01
    RHS       C0000219   0.000000000000e+00
    RHS       C0000220  -4.567893629515e+01
    RHS       C0000221   0.000000000000e+00
    RHS       C0000222  -6.264205490630e+01
    RHS       C0000223   0.000000000000e+00
    RHS       C0000224  -5.452700965603e+01
    RHS       C0000225   0.000000000000e+00
    RHS       C0000226  -1.194991385329e+01
    RHS       C0000227   0.000000000000e+00
    RHS       C0000228  -2.261137860873e+00
    RHS       C0000229   0.000000000000e+00
    RHS       C0000230  -7.189683663847e+00
    RHS       C0000231   0.000000000000e+00
    RHS       C0000232  -6.855761467508e-01
    RHS       C0000233   0.000000000000e+00
    RHS       C0000234  -8.926887060410e+00
    RHS       C0000235   0.000000000000e+00
    RHS       C0000236  -6.290606278732e+00
    RHS       C0000237   0.000000000000e+00
    RHS       C0000238  -2.592802397584e+00
    RHS       C0000239   0.000000000000e+00
    RHS       C0000240  -1.308748214261e+00
    RHS       C0000241   0.000000000000e+00
    RHS       C0000242  -9.405420307960e+00
    RHS       C0000243  -8.905603465214e+00
    RHS       C0000244  -9.183054287861e+00
    RHS       C0000245  -9.761933827462e+00
    RHS       C0000246  -9.762732577343e+00
    RHS       C0000247  -9.928936204724e+00
    RHS       C0000248  -1.077709213528e+01
    RHS       C0000249  -1.037133987277e+01
    RHS       C0000250   0.000000000000e+00
    RHS       C0000251   0.000000000000e+00
    RHS       C0000252   0.000000000000e+00
    RHS       C0000253   0.000000000000e+00
BOUNDS
 UP BND       X0000000   1.130000000000e+00
 UP BND       X0000001   1.130000000000e+00
 UP BND       X0000002   1.130000000000e+00
 UP BND       X0000003   1.130000000000e+00
 UP BND       X0000004   1.130000000000e+00
 UP BND       X0000005   1.130000000000e+00
 UP BND       X0000006   1.130000000000e+00
 UP BND       X0000007   1.130000000000e+00
 UP BND       X0000008   1.130000000000e+00
 UP BND       X0000009   1.130000000000e+00
 UP BND       X0000010   1.130000000000e+00
 UP BND       X0000011   1.130000000000e+00
 UP BND       X0000012   1.130000000000e+00
 UP BND       X0000013   1.130000000000e+00
 UP BND       X0000014   1.130000000000e+00
 UP BND       X0000015   1.130000000000e+00
 UP BND       X0000016   1.130000000000e+00
 UP BND       X0000017   1.130000000000e+00
 UP BND       X0000018   1.130000000000e+00
 UP BND       X0000019   1.130000000000e+00
 UP BND       X0000020   1.130000000000e+00
 UP BND       X0000021   1.130000000000e+00
 UP BND       X0000022   1.130000000000e+00
 UP BND       X0000023   1.130000000000e+00
 LO BND       X0000024  -1.130000000000e+00
 UP BND       X0000024   0.000000000000e+00
 LO BND       X0000025  -1.130000000000e+00
 UP BND       X0000025   0.000000000000e+00
 LO BND       X0000026  -1.130000000000e+00
 UP BND       X0000026   0.000000000000e+00
 LO BND       X0000027  -1.130000000000e+00
 UP BND       X0000027   0.000000000000e+00
 LO BND       X0000028  -1.130000000000e+00
 UP BND       X0000028   0.000000000000e+00
 LO BND       X0000029  -1.130000000000e+00
 UP BND       X0000029   0.000000000000e+00
 LO BND       X0000030  -1.130000000000e+00
 UP BND       X0000030   0.000000000000e+00
 LO BND       X0000031  -1.130000000000e+00
 UP BND       X0000031   0.000000000000e+00
 LO BND       X0000032  -1.130000000000e+00
 UP BND       X0000032   0.000000000000e+00
 LO BND       X0000033  -1.130000000000e+00
 UP BND       X0000033   0.000000000000e+00
 LO BND       X0000034  -1.130000000000e+00
 UP BND       X0000034   0.000000000000e+00
 LO BND       X0000035  -1.130000000000e+00
 UP BND       X0000035   0.000000000000e+00
 LO BND       X0000036  -1.130000000000e+00
 UP BND       X0000036   0.000000000000e+00
 LO BND       X0000037  -1.130000000000e+00
 UP BND       X0000037   0.000000000000e+00
 LO BND       X0000038  -1.130000000000e+00
 UP BND       X0000038   0.000000000000e+00
 LO BND       X0000039  -1.130000000000e+00
 UP BND       X0000039   0.000000000000e+00
 LO BND       X0000040  -1.130000000000e+00
 UP BND       X0000040   0.000000000000e+00
 LO BND       X0000041  -1.130000000000e+00
 UP BND       X0000041   0.000000000000e+00
 LO BND       X0000042  -1.130000000000e+00
 UP BND       X0000042   0.000000000000e+00
 LO BND       X0000043  -1.130000000000e+00
 UP BND       X0000043   0.000000000000e+00
 LO BND       X0000044  -1.130000000000e+00
 UP BND       X0000044   0.000000000000e+00
 LO BND       X0000045  -1.130000000000e+00
 UP BND       X0000045   0.000000000000e+00
 LO BND       X0000046  -1.130000000000e+00
 UP BND       X0000046   0.000000000000e+00
 LO BND       X0000047  -1.130000000000e+00
 UP BND       X0000047   0.000000000000e+00
 LO BND       X0000048   2.260000000000e-01
 UP BND       X0000048   1.017000000000e+00
 LO BND       X0000049   2.260000000000e-01
 UP BND       X0000049   1.017000000000e+00
 LO BND       X0000050   2.260000000000e-01
 UP BND       X0000050   1.017000000000e+00
 LO BND       X0000051   2.260000000000e-01
 UP BND       X0000051   1.017000000000e+00
 LO BND       X0000052   2.260000000000e-01
 UP BND       X0000052   1.017000000000e+00
 LO BND       X0000053   2.260000000000e-01
 UP BND       X0000053   1.017000000000e+00
 LO BND       X0000054   2.260000000000e-01
 UP BND       X0000054   1.017000000000e+00
 LO BND       X0000055   2.260000000000e-01
 UP BND       X0000055   1.017000000000e+00
 LO BND       X0000056   2.260000000000e-01
 UP BND       X0000056   1.017000000000e+00
 LO BND       X0000057   2.260000000000e-01
 UP BND       X0000057   1.017000000000e+00
 LO BND       X0000058   2.260000000000e-01
 UP BND       X0000058   1.017000000000e+00
 LO BND       X0000059   2.260000000000e-01
 UP BND       X0000059   1.017000000000e+00
 LO BND       X0000060   2.260000000000e-01
 UP BND       X0000060   1.017000000000e+00
 LO BND       X0000061   2.260000000000e-01
 UP BND       X0000061   1.017000000000e+00
 LO BND       X0000062   2.260000000000e-01
 UP BND       X0000062   1.017000000000e+00
 LO BND       X0000063   2.260000000000e-01
 UP BND       X0000063   1.017000000000e+00
 LO BND       X0000064   2.260000000000e-01
 UP BND       X0000064   1.017000000000e+00
 LO BND       X0000065   2.260000000000e-01
 UP BND       X0000065   1.017000000000e+00
 LO BND       X0000066   2.260000000000e-01
 UP BND       X0000066   1.017000000000e+00
 LO BND       X0000067   2.260000000000e-01
 UP BND       X0000067   1.017000000000e+00
 LO BND       X0000068   2.260000000000e-01
 UP BND       X0000068   1.017000000000e+00
 LO BND       X0000069   2.260000000000e-01
 UP BND       X0000069   1.017000000000e+00
 LO BND       X0000070   2.260000000000e-01
 UP BND       X0000070   1.017000000000e+00
 LO BND       X0000071   2.260000000000e-01
 UP BND       X0000071   1.017000000000e+00
ENDATA
